\ SCIP STATISTICS
\   Problem name     : SetCover-5-5
\   Variables        : 5 (5 binary, 0 integer, 0 implicit integer, 0 continuous)
\   Constraints      : 5
Minimize
 Obj: +51 x0 +14 x1 +29 x2 +13 x3 +24 x4
Subject to
 c0: +1 x1 +1 x4 >= +1
 c1: +1 x0 +1 x1 +1 x2 +1 x3 +1 x4 >= +1
 c2: +1 x0 +1 x2 +1 x3 +1 x4 >= +1
 c3: +1 x0 +1 x1 +1 x2 +1 x3 +1 x4 >= +1
 c4: +1 x0 +1 x1 +1 x2 +1 x3 >= +1
Bounds
 0 <= x0 <= 1
 0 <= x1 <= 1
 0 <= x2 <= 1
 0 <= x3 <= 1
 0 <= x4 <= 1
End
\{'t_x0': 0.0, 't_x1': 0.5, 't_x2': 0.0, 't_x3': 0.5, 't_x4': 0.5}

